50
1000
627
626
604
580
565
546
540
524
517
509
506
489
485
481
476
472
446
441
426
411
410
407
404
390
385
379
374
368
364
354
351
345
316
303
300
287
282
232
203
197
166
153
137
136
124
120
111
99
96
88
